p cnf 475 1613
c p weight 190 -1 0
c p weight -190 1 0
c p weight 192 6.12323399573676603586882014729198302312846062338790031898128063403419218957424163818359375E-17 0
c p weight -192 1 0
c p weight 193 1 0
c p weight -193 1 0
c p weight 194 -1 0
c p weight -194 1 0
c p weight 196 -1 0
c p weight -196 1 0
c p weight 199 -1 0
c p weight -199 1 0
c p weight 202 -1 0
c p weight -202 1 0
c p weight 205 -1 0
c p weight -205 1 0
c p weight 208 -1 0
c p weight -208 1 0
c p weight 211 -1 0
c p weight -211 1 0
c p weight 214 -1 0
c p weight -214 1 0
c p weight 217 -1 0
c p weight -217 1 0
c p weight 220 -1 0
c p weight -220 1 0
c p weight 223 -1 0
c p weight -223 1 0
c p weight 226 -1 0
c p weight -226 1 0
c p weight 229 -1 0
c p weight -229 1 0
c p weight 232 -1 0
c p weight -232 1 0
c p weight 235 -1 0
c p weight -235 1 0
c p weight 238 -1 0
c p weight -238 1 0
c p weight 241 -1 0
c p weight -241 1 0
c p weight 244 -1 0
c p weight -244 1 0
c p weight 247 -1 0
c p weight -247 1 0
c p weight 250 -1 0
c p weight -250 1 0
c p weight 253 -1 0
c p weight -253 1 0
c p weight 256 -1 0
c p weight -256 1 0
c p weight 259 -1 0
c p weight -259 1 0
c p weight 262 -1 0
c p weight -262 1 0
c p weight 265 -1 0
c p weight -265 1 0
c p weight 268 -1 0
c p weight -268 1 0
c p weight 271 -1 0
c p weight -271 1 0
c p weight 274 -1 0
c p weight -274 1 0
c p weight 277 -1 0
c p weight -277 1 0
c p weight 280 -1 0
c p weight -280 1 0
c p weight 283 -1 0
c p weight -283 1 0
c p weight 286 -1 0
c p weight -286 1 0
c p weight 289 -1 0
c p weight -289 1 0
c p weight 292 -1 0
c p weight -292 1 0
c p weight 295 -1 0
c p weight -295 1 0
c p weight 298 -1 0
c p weight -298 1 0
c p weight 301 -1 0
c p weight -301 1 0
c p weight 304 -1 0
c p weight -304 1 0
c p weight 307 -1 0
c p weight -307 1 0
c p weight 310 -1 0
c p weight -310 1 0
c p weight 313 -1 0
c p weight -313 1 0
c p weight 316 -1 0
c p weight -316 1 0
c p weight 319 -1 0
c p weight -319 1 0
c p weight 322 -1 0
c p weight -322 1 0
c p weight 325 -1 0
c p weight -325 1 0
c p weight 328 -1 0
c p weight -328 1 0
c p weight 331 -1 0
c p weight -331 1 0
c p weight 334 -1 0
c p weight -334 1 0
c p weight 337 -1 0
c p weight -337 1 0
c p weight 340 -1 0
c p weight -340 1 0
c p weight 343 -1 0
c p weight -343 1 0
c p weight 346 -1 0
c p weight -346 1 0
c p weight 349 -1 0
c p weight -349 1 0
c p weight 352 -1 0
c p weight -352 1 0
c p weight 355 -1 0
c p weight -355 1 0
c p weight 358 -1 0
c p weight -358 1 0
c p weight 361 -1 0
c p weight -361 1 0
c p weight 364 -1 0
c p weight -364 1 0
c p weight 367 -1 0
c p weight -367 1 0
c p weight 370 -1 0
c p weight -370 1 0
c p weight 373 -1 0
c p weight -373 1 0
c p weight 376 -1 0
c p weight -376 1 0
c p weight 379 -1 0
c p weight -379 1 0
c p weight 382 -1 0
c p weight -382 1 0
c p weight 385 -1 0
c p weight -385 1 0
c p weight 388 -1 0
c p weight -388 1 0
c p weight 391 -1 0
c p weight -391 1 0
c p weight 394 -1 0
c p weight -394 1 0
c p weight 397 -1 0
c p weight -397 1 0
c p weight 400 -1 0
c p weight -400 1 0
c p weight 403 -1 0
c p weight -403 1 0
c p weight 406 -1 0
c p weight -406 1 0
c p weight 409 -1 0
c p weight -409 1 0
c p weight 412 -1 0
c p weight -412 1 0
c p weight 415 -1 0
c p weight -415 1 0
c p weight 418 -1 0
c p weight -418 1 0
c p weight 421 -1 0
c p weight -421 1 0
c p weight 424 -1 0
c p weight -424 1 0
c p weight 427 -1 0
c p weight -427 1 0
c p weight 430 -1 0
c p weight -430 1 0
c p weight 433 -1 0
c p weight -433 1 0
c p weight 436 -1 0
c p weight -436 1 0
c p weight 439 -1 0
c p weight -439 1 0
c p weight 442 -1 0
c p weight -442 1 0
c p weight 445 -1 0
c p weight -445 1 0
c p weight 448 -1 0
c p weight -448 1 0
c p weight 451 -1 0
c p weight -451 1 0
c p weight 454 -1 0
c p weight -454 1 0
c p weight 457 -1 0
c p weight -457 1 0
c p weight 460 -1 0
c p weight -460 1 0
c p weight 463 -1 0
c p weight -463 1 0
c p weight 466 -1 0
c p weight -466 1 0
c p weight 469 -1 0
c p weight -469 1 0
c p weight 472 -1 0
c p weight -472 1 0
c p weight 475 -1 0
c p weight -475 1 0
-187 0
-185 0
-183 0
-181 0
-179 0
-177 0
-175 0
-173 0
-171 0
-169 0
-167 0
-165 0
-163 0
-161 0
-159 0
-157 0
-155 0
-153 0
-151 0
-149 0
-147 0
-145 0
-143 0
-141 0
-139 0
-137 0
-135 0
-133 0
-131 0
-129 0
-127 0
-125 0
-123 0
-121 0
-119 0
-117 0
-115 0
-113 0
-111 0
-109 0
-107 0
-105 0
-103 0
-101 0
-99 0
-97 0
-95 0
-93 0
-91 0
-89 0
-87 0
-85 0
-83 0
-81 0
-79 0
-77 0
-75 0
-73 0
-71 0
-69 0
-67 0
-65 0
-63 0
-61 0
-59 0
-57 0
-55 0
-53 0
-51 0
-49 0
-47 0
-45 0
-43 0
-41 0
-39 0
-37 0
-35 0
-33 0
-31 0
-29 0
-27 0
-25 0
-23 0
-21 0
-19 0
-17 0
-15 0
-13 0
-11 0
-9 0
-7 0
-5 0
-3 0
-1 0
189 187 -188 0
189 -187 188 0
-189 187 188 0
-189 -187 -188 0
-190 187 0
-190 188 0
190 -187 -188 0
191 -187 189 0
-191 187 189 0
-192 189 0
191 -192 -187 0
-191 -192 187 0
191 192 187 -189 0
-191 192 -187 -189 0
-193 189 0
191 -193 187 0
-191 -193 -187 0
191 193 -187 -189 0
-191 193 187 -189 0
-194 191 0
-194 189 0
-194 -187 0
194 -191 187 -189 0
195 191 -189 0
195 -191 189 0
-195 191 189 0
-195 -191 -189 0
-196 191 0
-196 189 0
196 -191 -189 0
197 191 -185 0
197 -191 185 0
-197 191 185 0
-197 -191 -185 0
198 195 -186 0
198 -195 186 0
-198 195 186 0
-198 -195 -186 0
-199 191 0
-199 186 0
-199 185 -195 0
-199 -185 195 0
199 -191 185 195 -186 0
199 -191 -185 -195 -186 0
200 197 -183 0
200 -197 183 0
-200 197 183 0
-200 -197 -183 0
201 186 -184 0
201 -186 184 0
-201 186 184 0
-201 -186 -184 0
-202 197 0
-202 184 0
-202 183 -186 0
-202 -183 186 0
202 -197 183 186 -184 0
202 -197 -183 -186 -184 0
203 200 -181 0
203 -200 181 0
-203 200 181 0
-203 -200 -181 0
204 184 -182 0
204 -184 182 0
-204 184 182 0
-204 -184 -182 0
-205 200 0
-205 182 0
-205 181 -184 0
-205 -181 184 0
205 -200 181 184 -182 0
205 -200 -181 -184 -182 0
206 203 -179 0
206 -203 179 0
-206 203 179 0
-206 -203 -179 0
207 182 -180 0
207 -182 180 0
-207 182 180 0
-207 -182 -180 0
-208 203 0
-208 180 0
-208 179 -182 0
-208 -179 182 0
208 -203 179 182 -180 0
208 -203 -179 -182 -180 0
209 206 -177 0
209 -206 177 0
-209 206 177 0
-209 -206 -177 0
210 180 -178 0
210 -180 178 0
-210 180 178 0
-210 -180 -178 0
-211 206 0
-211 178 0
-211 177 -180 0
-211 -177 180 0
211 -206 177 180 -178 0
211 -206 -177 -180 -178 0
212 209 -175 0
212 -209 175 0
-212 209 175 0
-212 -209 -175 0
213 178 -176 0
213 -178 176 0
-213 178 176 0
-213 -178 -176 0
-214 209 0
-214 176 0
-214 175 -178 0
-214 -175 178 0
214 -209 175 178 -176 0
214 -209 -175 -178 -176 0
215 212 -173 0
215 -212 173 0
-215 212 173 0
-215 -212 -173 0
216 176 -174 0
216 -176 174 0
-216 176 174 0
-216 -176 -174 0
-217 212 0
-217 174 0
-217 173 -176 0
-217 -173 176 0
217 -212 173 176 -174 0
217 -212 -173 -176 -174 0
218 215 -171 0
218 -215 171 0
-218 215 171 0
-218 -215 -171 0
219 174 -172 0
219 -174 172 0
-219 174 172 0
-219 -174 -172 0
-220 215 0
-220 172 0
-220 171 -174 0
-220 -171 174 0
220 -215 171 174 -172 0
220 -215 -171 -174 -172 0
221 218 -169 0
221 -218 169 0
-221 218 169 0
-221 -218 -169 0
222 172 -170 0
222 -172 170 0
-222 172 170 0
-222 -172 -170 0
-223 218 0
-223 170 0
-223 169 -172 0
-223 -169 172 0
223 -218 169 172 -170 0
223 -218 -169 -172 -170 0
224 221 -167 0
224 -221 167 0
-224 221 167 0
-224 -221 -167 0
225 170 -168 0
225 -170 168 0
-225 170 168 0
-225 -170 -168 0
-226 221 0
-226 168 0
-226 167 -170 0
-226 -167 170 0
226 -221 167 170 -168 0
226 -221 -167 -170 -168 0
227 224 -165 0
227 -224 165 0
-227 224 165 0
-227 -224 -165 0
228 168 -166 0
228 -168 166 0
-228 168 166 0
-228 -168 -166 0
-229 224 0
-229 166 0
-229 165 -168 0
-229 -165 168 0
229 -224 165 168 -166 0
229 -224 -165 -168 -166 0
230 227 -163 0
230 -227 163 0
-230 227 163 0
-230 -227 -163 0
231 166 -164 0
231 -166 164 0
-231 166 164 0
-231 -166 -164 0
-232 227 0
-232 164 0
-232 163 -166 0
-232 -163 166 0
232 -227 163 166 -164 0
232 -227 -163 -166 -164 0
233 230 -161 0
233 -230 161 0
-233 230 161 0
-233 -230 -161 0
234 164 -162 0
234 -164 162 0
-234 164 162 0
-234 -164 -162 0
-235 230 0
-235 162 0
-235 161 -164 0
-235 -161 164 0
235 -230 161 164 -162 0
235 -230 -161 -164 -162 0
236 233 -159 0
236 -233 159 0
-236 233 159 0
-236 -233 -159 0
237 162 -160 0
237 -162 160 0
-237 162 160 0
-237 -162 -160 0
-238 233 0
-238 160 0
-238 159 -162 0
-238 -159 162 0
238 -233 159 162 -160 0
238 -233 -159 -162 -160 0
239 236 -157 0
239 -236 157 0
-239 236 157 0
-239 -236 -157 0
240 160 -158 0
240 -160 158 0
-240 160 158 0
-240 -160 -158 0
-241 236 0
-241 158 0
-241 157 -160 0
-241 -157 160 0
241 -236 157 160 -158 0
241 -236 -157 -160 -158 0
242 239 -155 0
242 -239 155 0
-242 239 155 0
-242 -239 -155 0
243 158 -156 0
243 -158 156 0
-243 158 156 0
-243 -158 -156 0
-244 239 0
-244 156 0
-244 155 -158 0
-244 -155 158 0
244 -239 155 158 -156 0
244 -239 -155 -158 -156 0
245 242 -153 0
245 -242 153 0
-245 242 153 0
-245 -242 -153 0
246 156 -154 0
246 -156 154 0
-246 156 154 0
-246 -156 -154 0
-247 242 0
-247 154 0
-247 153 -156 0
-247 -153 156 0
247 -242 153 156 -154 0
247 -242 -153 -156 -154 0
248 245 -151 0
248 -245 151 0
-248 245 151 0
-248 -245 -151 0
249 154 -152 0
249 -154 152 0
-249 154 152 0
-249 -154 -152 0
-250 245 0
-250 152 0
-250 151 -154 0
-250 -151 154 0
250 -245 151 154 -152 0
250 -245 -151 -154 -152 0
251 248 -149 0
251 -248 149 0
-251 248 149 0
-251 -248 -149 0
252 152 -150 0
252 -152 150 0
-252 152 150 0
-252 -152 -150 0
-253 248 0
-253 150 0
-253 149 -152 0
-253 -149 152 0
253 -248 149 152 -150 0
253 -248 -149 -152 -150 0
254 251 -147 0
254 -251 147 0
-254 251 147 0
-254 -251 -147 0
255 150 -148 0
255 -150 148 0
-255 150 148 0
-255 -150 -148 0
-256 251 0
-256 148 0
-256 147 -150 0
-256 -147 150 0
256 -251 147 150 -148 0
256 -251 -147 -150 -148 0
257 254 -145 0
257 -254 145 0
-257 254 145 0
-257 -254 -145 0
258 148 -146 0
258 -148 146 0
-258 148 146 0
-258 -148 -146 0
-259 254 0
-259 146 0
-259 145 -148 0
-259 -145 148 0
259 -254 145 148 -146 0
259 -254 -145 -148 -146 0
260 257 -143 0
260 -257 143 0
-260 257 143 0
-260 -257 -143 0
261 146 -144 0
261 -146 144 0
-261 146 144 0
-261 -146 -144 0
-262 257 0
-262 144 0
-262 143 -146 0
-262 -143 146 0
262 -257 143 146 -144 0
262 -257 -143 -146 -144 0
263 260 -141 0
263 -260 141 0
-263 260 141 0
-263 -260 -141 0
264 144 -142 0
264 -144 142 0
-264 144 142 0
-264 -144 -142 0
-265 260 0
-265 142 0
-265 141 -144 0
-265 -141 144 0
265 -260 141 144 -142 0
265 -260 -141 -144 -142 0
266 263 -139 0
266 -263 139 0
-266 263 139 0
-266 -263 -139 0
267 142 -140 0
267 -142 140 0
-267 142 140 0
-267 -142 -140 0
-268 263 0
-268 140 0
-268 139 -142 0
-268 -139 142 0
268 -263 139 142 -140 0
268 -263 -139 -142 -140 0
269 266 -137 0
269 -266 137 0
-269 266 137 0
-269 -266 -137 0
270 140 -138 0
270 -140 138 0
-270 140 138 0
-270 -140 -138 0
-271 266 0
-271 138 0
-271 137 -140 0
-271 -137 140 0
271 -266 137 140 -138 0
271 -266 -137 -140 -138 0
272 269 -135 0
272 -269 135 0
-272 269 135 0
-272 -269 -135 0
273 138 -136 0
273 -138 136 0
-273 138 136 0
-273 -138 -136 0
-274 269 0
-274 136 0
-274 135 -138 0
-274 -135 138 0
274 -269 135 138 -136 0
274 -269 -135 -138 -136 0
275 272 -133 0
275 -272 133 0
-275 272 133 0
-275 -272 -133 0
276 136 -134 0
276 -136 134 0
-276 136 134 0
-276 -136 -134 0
-277 272 0
-277 134 0
-277 133 -136 0
-277 -133 136 0
277 -272 133 136 -134 0
277 -272 -133 -136 -134 0
278 275 -131 0
278 -275 131 0
-278 275 131 0
-278 -275 -131 0
279 134 -132 0
279 -134 132 0
-279 134 132 0
-279 -134 -132 0
-280 275 0
-280 132 0
-280 131 -134 0
-280 -131 134 0
280 -275 131 134 -132 0
280 -275 -131 -134 -132 0
281 278 -129 0
281 -278 129 0
-281 278 129 0
-281 -278 -129 0
282 132 -130 0
282 -132 130 0
-282 132 130 0
-282 -132 -130 0
-283 278 0
-283 130 0
-283 129 -132 0
-283 -129 132 0
283 -278 129 132 -130 0
283 -278 -129 -132 -130 0
284 281 -127 0
284 -281 127 0
-284 281 127 0
-284 -281 -127 0
285 130 -128 0
285 -130 128 0
-285 130 128 0
-285 -130 -128 0
-286 281 0
-286 128 0
-286 127 -130 0
-286 -127 130 0
286 -281 127 130 -128 0
286 -281 -127 -130 -128 0
287 284 -125 0
287 -284 125 0
-287 284 125 0
-287 -284 -125 0
288 128 -126 0
288 -128 126 0
-288 128 126 0
-288 -128 -126 0
-289 284 0
-289 126 0
-289 125 -128 0
-289 -125 128 0
289 -284 125 128 -126 0
289 -284 -125 -128 -126 0
290 287 -123 0
290 -287 123 0
-290 287 123 0
-290 -287 -123 0
291 126 -124 0
291 -126 124 0
-291 126 124 0
-291 -126 -124 0
-292 287 0
-292 124 0
-292 123 -126 0
-292 -123 126 0
292 -287 123 126 -124 0
292 -287 -123 -126 -124 0
293 290 -121 0
293 -290 121 0
-293 290 121 0
-293 -290 -121 0
294 124 -122 0
294 -124 122 0
-294 124 122 0
-294 -124 -122 0
-295 290 0
-295 122 0
-295 121 -124 0
-295 -121 124 0
295 -290 121 124 -122 0
295 -290 -121 -124 -122 0
296 293 -119 0
296 -293 119 0
-296 293 119 0
-296 -293 -119 0
297 122 -120 0
297 -122 120 0
-297 122 120 0
-297 -122 -120 0
-298 293 0
-298 120 0
-298 119 -122 0
-298 -119 122 0
298 -293 119 122 -120 0
298 -293 -119 -122 -120 0
299 296 -117 0
299 -296 117 0
-299 296 117 0
-299 -296 -117 0
300 120 -118 0
300 -120 118 0
-300 120 118 0
-300 -120 -118 0
-301 296 0
-301 118 0
-301 117 -120 0
-301 -117 120 0
301 -296 117 120 -118 0
301 -296 -117 -120 -118 0
302 299 -115 0
302 -299 115 0
-302 299 115 0
-302 -299 -115 0
303 118 -116 0
303 -118 116 0
-303 118 116 0
-303 -118 -116 0
-304 299 0
-304 116 0
-304 115 -118 0
-304 -115 118 0
304 -299 115 118 -116 0
304 -299 -115 -118 -116 0
305 302 -113 0
305 -302 113 0
-305 302 113 0
-305 -302 -113 0
306 116 -114 0
306 -116 114 0
-306 116 114 0
-306 -116 -114 0
-307 302 0
-307 114 0
-307 113 -116 0
-307 -113 116 0
307 -302 113 116 -114 0
307 -302 -113 -116 -114 0
308 305 -111 0
308 -305 111 0
-308 305 111 0
-308 -305 -111 0
309 114 -112 0
309 -114 112 0
-309 114 112 0
-309 -114 -112 0
-310 305 0
-310 112 0
-310 111 -114 0
-310 -111 114 0
310 -305 111 114 -112 0
310 -305 -111 -114 -112 0
311 308 -109 0
311 -308 109 0
-311 308 109 0
-311 -308 -109 0
312 112 -110 0
312 -112 110 0
-312 112 110 0
-312 -112 -110 0
-313 308 0
-313 110 0
-313 109 -112 0
-313 -109 112 0
313 -308 109 112 -110 0
313 -308 -109 -112 -110 0
314 311 -107 0
314 -311 107 0
-314 311 107 0
-314 -311 -107 0
315 110 -108 0
315 -110 108 0
-315 110 108 0
-315 -110 -108 0
-316 311 0
-316 108 0
-316 107 -110 0
-316 -107 110 0
316 -311 107 110 -108 0
316 -311 -107 -110 -108 0
317 314 -105 0
317 -314 105 0
-317 314 105 0
-317 -314 -105 0
318 108 -106 0
318 -108 106 0
-318 108 106 0
-318 -108 -106 0
-319 314 0
-319 106 0
-319 105 -108 0
-319 -105 108 0
319 -314 105 108 -106 0
319 -314 -105 -108 -106 0
320 317 -103 0
320 -317 103 0
-320 317 103 0
-320 -317 -103 0
321 106 -104 0
321 -106 104 0
-321 106 104 0
-321 -106 -104 0
-322 317 0
-322 104 0
-322 103 -106 0
-322 -103 106 0
322 -317 103 106 -104 0
322 -317 -103 -106 -104 0
323 320 -101 0
323 -320 101 0
-323 320 101 0
-323 -320 -101 0
324 104 -102 0
324 -104 102 0
-324 104 102 0
-324 -104 -102 0
-325 320 0
-325 102 0
-325 101 -104 0
-325 -101 104 0
325 -320 101 104 -102 0
325 -320 -101 -104 -102 0
326 323 -99 0
326 -323 99 0
-326 323 99 0
-326 -323 -99 0
327 102 -100 0
327 -102 100 0
-327 102 100 0
-327 -102 -100 0
-328 323 0
-328 100 0
-328 99 -102 0
-328 -99 102 0
328 -323 99 102 -100 0
328 -323 -99 -102 -100 0
329 326 -97 0
329 -326 97 0
-329 326 97 0
-329 -326 -97 0
330 100 -98 0
330 -100 98 0
-330 100 98 0
-330 -100 -98 0
-331 326 0
-331 98 0
-331 97 -100 0
-331 -97 100 0
331 -326 97 100 -98 0
331 -326 -97 -100 -98 0
332 329 -95 0
332 -329 95 0
-332 329 95 0
-332 -329 -95 0
333 98 -96 0
333 -98 96 0
-333 98 96 0
-333 -98 -96 0
-334 329 0
-334 96 0
-334 95 -98 0
-334 -95 98 0
334 -329 95 98 -96 0
334 -329 -95 -98 -96 0
335 332 -93 0
335 -332 93 0
-335 332 93 0
-335 -332 -93 0
336 96 -94 0
336 -96 94 0
-336 96 94 0
-336 -96 -94 0
-337 332 0
-337 94 0
-337 93 -96 0
-337 -93 96 0
337 -332 93 96 -94 0
337 -332 -93 -96 -94 0
338 335 -91 0
338 -335 91 0
-338 335 91 0
-338 -335 -91 0
339 94 -92 0
339 -94 92 0
-339 94 92 0
-339 -94 -92 0
-340 335 0
-340 92 0
-340 91 -94 0
-340 -91 94 0
340 -335 91 94 -92 0
340 -335 -91 -94 -92 0
341 338 -89 0
341 -338 89 0
-341 338 89 0
-341 -338 -89 0
342 92 -90 0
342 -92 90 0
-342 92 90 0
-342 -92 -90 0
-343 338 0
-343 90 0
-343 89 -92 0
-343 -89 92 0
343 -338 89 92 -90 0
343 -338 -89 -92 -90 0
344 341 -87 0
344 -341 87 0
-344 341 87 0
-344 -341 -87 0
345 90 -88 0
345 -90 88 0
-345 90 88 0
-345 -90 -88 0
-346 341 0
-346 88 0
-346 87 -90 0
-346 -87 90 0
346 -341 87 90 -88 0
346 -341 -87 -90 -88 0
347 344 -85 0
347 -344 85 0
-347 344 85 0
-347 -344 -85 0
348 88 -86 0
348 -88 86 0
-348 88 86 0
-348 -88 -86 0
-349 344 0
-349 86 0
-349 85 -88 0
-349 -85 88 0
349 -344 85 88 -86 0
349 -344 -85 -88 -86 0
350 347 -83 0
350 -347 83 0
-350 347 83 0
-350 -347 -83 0
351 86 -84 0
351 -86 84 0
-351 86 84 0
-351 -86 -84 0
-352 347 0
-352 84 0
-352 83 -86 0
-352 -83 86 0
352 -347 83 86 -84 0
352 -347 -83 -86 -84 0
353 350 -81 0
353 -350 81 0
-353 350 81 0
-353 -350 -81 0
354 84 -82 0
354 -84 82 0
-354 84 82 0
-354 -84 -82 0
-355 350 0
-355 82 0
-355 81 -84 0
-355 -81 84 0
355 -350 81 84 -82 0
355 -350 -81 -84 -82 0
356 353 -79 0
356 -353 79 0
-356 353 79 0
-356 -353 -79 0
357 82 -80 0
357 -82 80 0
-357 82 80 0
-357 -82 -80 0
-358 353 0
-358 80 0
-358 79 -82 0
-358 -79 82 0
358 -353 79 82 -80 0
358 -353 -79 -82 -80 0
359 356 -77 0
359 -356 77 0
-359 356 77 0
-359 -356 -77 0
360 80 -78 0
360 -80 78 0
-360 80 78 0
-360 -80 -78 0
-361 356 0
-361 78 0
-361 77 -80 0
-361 -77 80 0
361 -356 77 80 -78 0
361 -356 -77 -80 -78 0
362 359 -75 0
362 -359 75 0
-362 359 75 0
-362 -359 -75 0
363 78 -76 0
363 -78 76 0
-363 78 76 0
-363 -78 -76 0
-364 359 0
-364 76 0
-364 75 -78 0
-364 -75 78 0
364 -359 75 78 -76 0
364 -359 -75 -78 -76 0
365 362 -73 0
365 -362 73 0
-365 362 73 0
-365 -362 -73 0
366 76 -74 0
366 -76 74 0
-366 76 74 0
-366 -76 -74 0
-367 362 0
-367 74 0
-367 73 -76 0
-367 -73 76 0
367 -362 73 76 -74 0
367 -362 -73 -76 -74 0
368 365 -71 0
368 -365 71 0
-368 365 71 0
-368 -365 -71 0
369 74 -72 0
369 -74 72 0
-369 74 72 0
-369 -74 -72 0
-370 365 0
-370 72 0
-370 71 -74 0
-370 -71 74 0
370 -365 71 74 -72 0
370 -365 -71 -74 -72 0
371 368 -69 0
371 -368 69 0
-371 368 69 0
-371 -368 -69 0
372 72 -70 0
372 -72 70 0
-372 72 70 0
-372 -72 -70 0
-373 368 0
-373 70 0
-373 69 -72 0
-373 -69 72 0
373 -368 69 72 -70 0
373 -368 -69 -72 -70 0
374 371 -67 0
374 -371 67 0
-374 371 67 0
-374 -371 -67 0
375 70 -68 0
375 -70 68 0
-375 70 68 0
-375 -70 -68 0
-376 371 0
-376 68 0
-376 67 -70 0
-376 -67 70 0
376 -371 67 70 -68 0
376 -371 -67 -70 -68 0
377 374 -65 0
377 -374 65 0
-377 374 65 0
-377 -374 -65 0
378 68 -66 0
378 -68 66 0
-378 68 66 0
-378 -68 -66 0
-379 374 0
-379 66 0
-379 65 -68 0
-379 -65 68 0
379 -374 65 68 -66 0
379 -374 -65 -68 -66 0
380 377 -63 0
380 -377 63 0
-380 377 63 0
-380 -377 -63 0
381 66 -64 0
381 -66 64 0
-381 66 64 0
-381 -66 -64 0
-382 377 0
-382 64 0
-382 63 -66 0
-382 -63 66 0
382 -377 63 66 -64 0
382 -377 -63 -66 -64 0
383 380 -61 0
383 -380 61 0
-383 380 61 0
-383 -380 -61 0
384 64 -62 0
384 -64 62 0
-384 64 62 0
-384 -64 -62 0
-385 380 0
-385 62 0
-385 61 -64 0
-385 -61 64 0
385 -380 61 64 -62 0
385 -380 -61 -64 -62 0
386 383 -59 0
386 -383 59 0
-386 383 59 0
-386 -383 -59 0
387 62 -60 0
387 -62 60 0
-387 62 60 0
-387 -62 -60 0
-388 383 0
-388 60 0
-388 59 -62 0
-388 -59 62 0
388 -383 59 62 -60 0
388 -383 -59 -62 -60 0
389 386 -57 0
389 -386 57 0
-389 386 57 0
-389 -386 -57 0
390 60 -58 0
390 -60 58 0
-390 60 58 0
-390 -60 -58 0
-391 386 0
-391 58 0
-391 57 -60 0
-391 -57 60 0
391 -386 57 60 -58 0
391 -386 -57 -60 -58 0
392 389 -55 0
392 -389 55 0
-392 389 55 0
-392 -389 -55 0
393 58 -56 0
393 -58 56 0
-393 58 56 0
-393 -58 -56 0
-394 389 0
-394 56 0
-394 55 -58 0
-394 -55 58 0
394 -389 55 58 -56 0
394 -389 -55 -58 -56 0
395 392 -53 0
395 -392 53 0
-395 392 53 0
-395 -392 -53 0
396 56 -54 0
396 -56 54 0
-396 56 54 0
-396 -56 -54 0
-397 392 0
-397 54 0
-397 53 -56 0
-397 -53 56 0
397 -392 53 56 -54 0
397 -392 -53 -56 -54 0
398 395 -51 0
398 -395 51 0
-398 395 51 0
-398 -395 -51 0
399 54 -52 0
399 -54 52 0
-399 54 52 0
-399 -54 -52 0
-400 395 0
-400 52 0
-400 51 -54 0
-400 -51 54 0
400 -395 51 54 -52 0
400 -395 -51 -54 -52 0
401 398 -49 0
401 -398 49 0
-401 398 49 0
-401 -398 -49 0
402 52 -50 0
402 -52 50 0
-402 52 50 0
-402 -52 -50 0
-403 398 0
-403 50 0
-403 49 -52 0
-403 -49 52 0
403 -398 49 52 -50 0
403 -398 -49 -52 -50 0
404 401 -47 0
404 -401 47 0
-404 401 47 0
-404 -401 -47 0
405 50 -48 0
405 -50 48 0
-405 50 48 0
-405 -50 -48 0
-406 401 0
-406 48 0
-406 47 -50 0
-406 -47 50 0
406 -401 47 50 -48 0
406 -401 -47 -50 -48 0
407 404 -45 0
407 -404 45 0
-407 404 45 0
-407 -404 -45 0
408 48 -46 0
408 -48 46 0
-408 48 46 0
-408 -48 -46 0
-409 404 0
-409 46 0
-409 45 -48 0
-409 -45 48 0
409 -404 45 48 -46 0
409 -404 -45 -48 -46 0
410 407 -43 0
410 -407 43 0
-410 407 43 0
-410 -407 -43 0
411 46 -44 0
411 -46 44 0
-411 46 44 0
-411 -46 -44 0
-412 407 0
-412 44 0
-412 43 -46 0
-412 -43 46 0
412 -407 43 46 -44 0
412 -407 -43 -46 -44 0
413 410 -41 0
413 -410 41 0
-413 410 41 0
-413 -410 -41 0
414 44 -42 0
414 -44 42 0
-414 44 42 0
-414 -44 -42 0
-415 410 0
-415 42 0
-415 41 -44 0
-415 -41 44 0
415 -410 41 44 -42 0
415 -410 -41 -44 -42 0
416 413 -39 0
416 -413 39 0
-416 413 39 0
-416 -413 -39 0
417 42 -40 0
417 -42 40 0
-417 42 40 0
-417 -42 -40 0
-418 413 0
-418 40 0
-418 39 -42 0
-418 -39 42 0
418 -413 39 42 -40 0
418 -413 -39 -42 -40 0
419 416 -37 0
419 -416 37 0
-419 416 37 0
-419 -416 -37 0
420 40 -38 0
420 -40 38 0
-420 40 38 0
-420 -40 -38 0
-421 416 0
-421 38 0
-421 37 -40 0
-421 -37 40 0
421 -416 37 40 -38 0
421 -416 -37 -40 -38 0
422 419 -35 0
422 -419 35 0
-422 419 35 0
-422 -419 -35 0
423 38 -36 0
423 -38 36 0
-423 38 36 0
-423 -38 -36 0
-424 419 0
-424 36 0
-424 35 -38 0
-424 -35 38 0
424 -419 35 38 -36 0
424 -419 -35 -38 -36 0
425 422 -33 0
425 -422 33 0
-425 422 33 0
-425 -422 -33 0
426 36 -34 0
426 -36 34 0
-426 36 34 0
-426 -36 -34 0
-427 422 0
-427 34 0
-427 33 -36 0
-427 -33 36 0
427 -422 33 36 -34 0
427 -422 -33 -36 -34 0
428 425 -31 0
428 -425 31 0
-428 425 31 0
-428 -425 -31 0
429 34 -32 0
429 -34 32 0
-429 34 32 0
-429 -34 -32 0
-430 425 0
-430 32 0
-430 31 -34 0
-430 -31 34 0
430 -425 31 34 -32 0
430 -425 -31 -34 -32 0
431 428 -29 0
431 -428 29 0
-431 428 29 0
-431 -428 -29 0
432 32 -30 0
432 -32 30 0
-432 32 30 0
-432 -32 -30 0
-433 428 0
-433 30 0
-433 29 -32 0
-433 -29 32 0
433 -428 29 32 -30 0
433 -428 -29 -32 -30 0
434 431 -27 0
434 -431 27 0
-434 431 27 0
-434 -431 -27 0
435 30 -28 0
435 -30 28 0
-435 30 28 0
-435 -30 -28 0
-436 431 0
-436 28 0
-436 27 -30 0
-436 -27 30 0
436 -431 27 30 -28 0
436 -431 -27 -30 -28 0
437 434 -25 0
437 -434 25 0
-437 434 25 0
-437 -434 -25 0
438 28 -26 0
438 -28 26 0
-438 28 26 0
-438 -28 -26 0
-439 434 0
-439 26 0
-439 25 -28 0
-439 -25 28 0
439 -434 25 28 -26 0
439 -434 -25 -28 -26 0
440 437 -23 0
440 -437 23 0
-440 437 23 0
-440 -437 -23 0
441 26 -24 0
441 -26 24 0
-441 26 24 0
-441 -26 -24 0
-442 437 0
-442 24 0
-442 23 -26 0
-442 -23 26 0
442 -437 23 26 -24 0
442 -437 -23 -26 -24 0
443 440 -21 0
443 -440 21 0
-443 440 21 0
-443 -440 -21 0
444 24 -22 0
444 -24 22 0
-444 24 22 0
-444 -24 -22 0
-445 440 0
-445 22 0
-445 21 -24 0
-445 -21 24 0
445 -440 21 24 -22 0
445 -440 -21 -24 -22 0
446 443 -19 0
446 -443 19 0
-446 443 19 0
-446 -443 -19 0
447 22 -20 0
447 -22 20 0
-447 22 20 0
-447 -22 -20 0
-448 443 0
-448 20 0
-448 19 -22 0
-448 -19 22 0
448 -443 19 22 -20 0
448 -443 -19 -22 -20 0
449 446 -17 0
449 -446 17 0
-449 446 17 0
-449 -446 -17 0
450 20 -18 0
450 -20 18 0
-450 20 18 0
-450 -20 -18 0
-451 446 0
-451 18 0
-451 17 -20 0
-451 -17 20 0
451 -446 17 20 -18 0
451 -446 -17 -20 -18 0
452 449 -15 0
452 -449 15 0
-452 449 15 0
-452 -449 -15 0
453 18 -16 0
453 -18 16 0
-453 18 16 0
-453 -18 -16 0
-454 449 0
-454 16 0
-454 15 -18 0
-454 -15 18 0
454 -449 15 18 -16 0
454 -449 -15 -18 -16 0
455 452 -13 0
455 -452 13 0
-455 452 13 0
-455 -452 -13 0
456 16 -14 0
456 -16 14 0
-456 16 14 0
-456 -16 -14 0
-457 452 0
-457 14 0
-457 13 -16 0
-457 -13 16 0
457 -452 13 16 -14 0
457 -452 -13 -16 -14 0
458 455 -11 0
458 -455 11 0
-458 455 11 0
-458 -455 -11 0
459 14 -12 0
459 -14 12 0
-459 14 12 0
-459 -14 -12 0
-460 455 0
-460 12 0
-460 11 -14 0
-460 -11 14 0
460 -455 11 14 -12 0
460 -455 -11 -14 -12 0
461 458 -9 0
461 -458 9 0
-461 458 9 0
-461 -458 -9 0
462 12 -10 0
462 -12 10 0
-462 12 10 0
-462 -12 -10 0
-463 458 0
-463 10 0
-463 9 -12 0
-463 -9 12 0
463 -458 9 12 -10 0
463 -458 -9 -12 -10 0
464 461 -7 0
464 -461 7 0
-464 461 7 0
-464 -461 -7 0
465 10 -8 0
465 -10 8 0
-465 10 8 0
-465 -10 -8 0
-466 461 0
-466 8 0
-466 7 -10 0
-466 -7 10 0
466 -461 7 10 -8 0
466 -461 -7 -10 -8 0
467 464 -5 0
467 -464 5 0
-467 464 5 0
-467 -464 -5 0
468 8 -6 0
468 -8 6 0
-468 8 6 0
-468 -8 -6 0
-469 464 0
-469 6 0
-469 5 -8 0
-469 -5 8 0
469 -464 5 8 -6 0
469 -464 -5 -8 -6 0
470 467 -3 0
470 -467 3 0
-470 467 3 0
-470 -467 -3 0
471 6 -4 0
471 -6 4 0
-471 6 4 0
-471 -6 -4 0
-472 467 0
-472 4 0
-472 3 -6 0
-472 -3 6 0
472 -467 3 6 -4 0
472 -467 -3 -6 -4 0
473 470 -1 0
473 -470 1 0
-473 470 1 0
-473 -470 -1 0
474 4 -2 0
474 -4 2 0
-474 4 2 0
-474 -4 -2 0
-475 470 0
-475 2 0
-475 1 -4 0
-475 -1 4 0
475 -470 1 4 -2 0
475 -470 -1 -4 -2 0
-473 0
-470 0
-474 0
-467 0
-471 0
-464 0
-468 0
-461 0
-465 0
-458 0
-462 0
-455 0
-459 0
-452 0
-456 0
-449 0
-453 0
-446 0
-450 0
-443 0
-447 0
-440 0
-444 0
-437 0
-441 0
-434 0
-438 0
-431 0
-435 0
-428 0
-432 0
-425 0
-429 0
-422 0
-426 0
-419 0
-423 0
-416 0
-420 0
-413 0
-417 0
-410 0
-414 0
-407 0
-411 0
-404 0
-408 0
-401 0
-405 0
-398 0
-402 0
-395 0
-399 0
-392 0
-396 0
-389 0
-393 0
-386 0
-390 0
-383 0
-387 0
-380 0
-384 0
-377 0
-381 0
-374 0
-378 0
-371 0
-375 0
-368 0
-372 0
-365 0
-369 0
-362 0
-366 0
-359 0
-363 0
-356 0
-360 0
-353 0
-357 0
-350 0
-354 0
-347 0
-351 0
-344 0
-348 0
-341 0
-345 0
-338 0
-342 0
-335 0
-339 0
-332 0
-336 0
-329 0
-333 0
-326 0
-330 0
-323 0
-327 0
-320 0
-324 0
-317 0
-321 0
-314 0
-318 0
-311 0
-315 0
-308 0
-312 0
-305 0
-309 0
-302 0
-306 0
-299 0
-303 0
-296 0
-300 0
-293 0
-297 0
-290 0
-294 0
-287 0
-291 0
-284 0
-288 0
-281 0
-285 0
-278 0
-282 0
-275 0
-279 0
-272 0
-276 0
-269 0
-273 0
-266 0
-270 0
-263 0
-267 0
-260 0
-264 0
-257 0
-261 0
-254 0
-258 0
-251 0
-255 0
-248 0
-252 0
-245 0
-249 0
-242 0
-246 0
-239 0
-243 0
-236 0
-240 0
-233 0
-237 0
-230 0
-234 0
-227 0
-231 0
-224 0
-228 0
-221 0
-225 0
-218 0
-222 0
-215 0
-219 0
-212 0
-216 0
-209 0
-213 0
-206 0
-210 0
-203 0
-207 0
-200 0
-204 0
-197 0
-201 0
-191 0
-198 0
